
Gurobi 9.5.1 (win64) logging started Tue Apr 19 15:21:15 2022

Set parameter LogFile to value "./Log/Pattern_Appro_solver_800_order_80_batch.log"
Gurobi Optimizer version 9.5.1 build v9.5.1rc2 (win64)
Thread count: 6 physical cores, 12 logical processors, using up to 12 threads
Optimize a model with 4472 rows, 48000 columns and 252720 nonzeros
Model fingerprint: 0x0519533f
Variable types: 0 continuous, 48000 integer (42640 binary)
Coefficient statistics:
  Matrix range     [1e+00, 1e+01]
  Objective range  [1e+00, 4e+01]
  Bounds range     [1e+00, 2e+01]
  RHS range        [1e+00, 2e+01]
Found heuristic solution: objective 18962.000000
Presolve removed 420 rows and 4088 columns
Presolve time: 0.30s
Presolved: 4052 rows, 43912 columns, 220417 nonzeros
Variable types: 0 continuous, 43912 integer (38822 binary)

Root simplex log...

Iteration    Objective       Primal Inf.    Dual Inf.      Time
   27999    3.2740962e+03   1.576477e+04   0.000000e+00      5s
   48750    4.1916667e+03   0.000000e+00   0.000000e+00      9s

Root relaxation: objective 4.191667e+03, 48750 iterations, 8.38 seconds (9.45 work units)

    Nodes    |    Current Node    |     Objective Bounds      |     Work
 Expl Unexpl |  Obj  Depth IntInf | Incumbent    BestBd   Gap | It/Node Time

     0     0 4191.66667    0  828 18962.0000 4191.66667  77.9%     -    9s
H    0     0                    12490.000000 4191.66667  66.4%     -    9s
H    0     0                    11870.000000 4191.66667  64.7%     -   16s
H    0     0                    11690.000000 4191.66667  64.1%     -   21s
H    0     0                    11243.000000 4191.66667  62.7%     -   21s
     0     0 4333.30024    0 1530 11243.0000 4333.30024  61.5%     -   22s
H    0     0                    10789.000000 4333.30024  59.8%     -   23s
H    0     0                    10635.000000 4390.88860  58.7%     -   25s
     0     0 4395.88462    0 1720 10635.0000 4395.88462  58.7%     -   25s
     0     0 4402.55830    0 1711 10635.0000 4402.55830  58.6%     -   26s
     0     0 4404.57378    0 1640 10635.0000 4404.57378  58.6%     -   26s
H    0     0                    10386.000000 4404.98824  57.6%     -   27s
     0     0 4404.98824    0 1645 10386.0000 4404.98824  57.6%     -   27s
     0     0 4405.01915    0 1655 10386.0000 4405.01915  57.6%     -   27s
H    0     0                    10318.000000 4460.96864  56.8%     -   30s
     0     0 4460.96864    0 2260 10318.0000 4460.96864  56.8%     -   30s
H    0     0                    10294.000000 4473.42926  56.5%     -   33s
     0     0 4473.42926    0 2318 10294.0000 4473.42926  56.5%     -   33s
     0     0 4476.04874    0 2226 10294.0000 4476.04874  56.5%     -   35s
     0     0 4476.55271    0 2302 10294.0000 4476.55271  56.5%     -   35s
     0     0 4477.06249    0 2376 10294.0000 4477.06249  56.5%     -   36s
     0     0 4477.11376    0 2371 10294.0000 4477.11376  56.5%     -   36s
     0     0 4513.42818    0 2763 10294.0000 4513.42818  56.2%     -   41s
H    0     0                    10211.000000 4513.42818  55.8%     -   42s
H    0     0                    10188.000000 4524.50629  55.6%     -   48s
     0     0 4524.50629    0 2882 10188.0000 4524.50629  55.6%     -   48s
     0     0 4527.98752    0 2791 10188.0000 4527.98752  55.6%     -   53s
     0     0 4529.24495    0 2846 10188.0000 4529.24495  55.5%     -   55s
     0     0 4530.26307    0 2802 10188.0000 4530.26307  55.5%     -   58s
     0     0 4530.87464    0 2831 10188.0000 4530.87464  55.5%     -   60s
     0     0 4531.05524    0 2787 10188.0000 4531.05524  55.5%     -   61s
     0     0 4554.49253    0 3550 10188.0000 4554.49253  55.3%     -   72s
H    0     0                    10073.000000 4569.89200  54.6%     -   85s
     0     0 4569.89200    0 3703 10073.0000 4569.89200  54.6%     -   85s
H    0     0                    9867.0000000 4574.31618  53.6%     -   95s
H    0     0                    9838.0000000 4574.31618  53.5%     -   95s
     0     0 4574.31618    0 3905 9838.00000 4574.31618  53.5%     -   95s
     0     0          -    0      9838.00000 4574.31618  53.5%     -  100s

Cutting planes:
  Gomory: 25
  Cover: 2529
  Implied bound: 75
  Clique: 621
  MIR: 42
  StrongCG: 8
  Flow cover: 91
  Zero half: 9
  Relax-and-lift: 7

Explored 1 nodes (113658 simplex iterations) in 100.03 seconds (96.85 work units)
Thread count was 12 (of 12 available processors)

Solution count 10: 9838 9867 10073 ... 10789

Time limit reached
Best objective 9.838000000000e+03, best bound 4.575000000000e+03, gap 53.4966%

Gurobi 9.5.1 (win64) logging started Tue Apr 19 15:27:05 2022

Set parameter LogFile to value "./Log/Pattern_Appro_solver_800_order_80_batch.log"
Gurobi Optimizer version 9.5.1 build v9.5.1rc2 (win64)
Thread count: 6 physical cores, 12 logical processors, using up to 12 threads
Optimize a model with 4416 rows, 43520 columns and 211040 nonzeros
Model fingerprint: 0x2c374aaa
Variable types: 0 continuous, 43520 integer (38240 binary)
Coefficient statistics:
  Matrix range     [1e+00, 1e+01]
  Objective range  [1e+00, 4e+01]
  Bounds range     [1e+00, 2e+01]
  RHS range        [1e+00, 2e+01]
Found heuristic solution: objective 16833.000000
Presolve removed 392 rows and 3670 columns
Presolve time: 0.23s
Presolved: 4024 rows, 39850 columns, 184996 nonzeros
Variable types: 0 continuous, 39850 integer (35557 binary)

Root simplex log...

Iteration    Objective       Primal Inf.    Dual Inf.      Time
   35323    3.4741594e+03   1.108949e+04   0.000000e+00      5s
   43031    3.6785556e+03   0.000000e+00   0.000000e+00      6s

Root relaxation: objective 3.678556e+03, 43031 iterations, 5.87 seconds (5.98 work units)

    Nodes    |    Current Node    |     Objective Bounds      |     Work
 Expl Unexpl |  Obj  Depth IntInf | Incumbent    BestBd   Gap | It/Node Time

     0     0 3678.55556    0  687 16833.0000 3678.55556  78.1%     -    6s
H    0     0                    10483.000000 3678.55556  64.9%     -    6s
H    0     0                    10388.000000 3678.55556  64.6%     -    6s
H    0     0                    10047.000000 3678.55556  63.4%     -   13s
H    0     0                    9479.0000000 3678.55556  61.2%     -   14s
H    0     0                    8889.0000000 3678.55556  58.6%     -   14s
H    0     0                    8575.0000000 3678.55556  57.1%     -   14s
H    0     0                    8354.0000000 3678.55556  56.0%     -   14s
H    0     0                    8266.0000000 3678.55556  55.5%     -   14s
     0     0 3809.54856    0 1162 8266.00000 3809.54856  53.9%     -   15s
H    0     0                    8136.0000000 3809.54856  53.2%     -   16s
     0     0 3810.67927    0 1164 8136.00000 3810.67927  53.2%     -   16s
     0     0 3810.67927    0 1171 8136.00000 3810.67927  53.2%     -   16s
H    0     0                    8093.0000000 3886.06004  52.0%     -   18s
     0     0 3886.06004    0 1502 8093.00000 3886.06004  52.0%     -   18s
     0     0 3898.06037    0 1488 8093.00000 3898.06037  51.8%     -   18s
     0     0 3898.67160    0 1494 8093.00000 3898.67160  51.8%     -   19s
     0     0 3900.13350    0 1546 8093.00000 3900.13350  51.8%     -   19s
     0     0 3900.16314    0 1517 8093.00000 3900.16314  51.8%     -   19s
     0     0 3944.34970    0 1878 8093.00000 3944.34970  51.3%     -   22s
H    0     0                    7989.0000000 3944.34970  50.6%     -   23s
     0     0 3949.71090    0 1820 7989.00000 3949.71090  50.6%     -   25s
     0     0 3951.50251    0 1898 7989.00000 3951.50251  50.5%     -   26s
     0     0 3952.81387    0 1793 7989.00000 3952.81387  50.5%     -   27s
     0     0 3953.37522    0 1867 7989.00000 3953.37522  50.5%     -   27s
     0     0 3954.10507    0 1828 7989.00000 3954.10507  50.5%     -   27s
     0     0 3954.48263    0 1890 7989.00000 3954.48263  50.5%     -   28s
     0     0 3954.76959    0 1866 7989.00000 3954.76959  50.5%     -   28s
     0     0 3954.77749    0 1919 7989.00000 3954.77749  50.5%     -   28s
     0     0 3984.50096    0 2376 7989.00000 3984.50096  50.1%     -   34s
     0     0 3992.78430    0 2316 7989.00000 3992.78430  50.0%     -   38s
     0     0 3995.37637    0 2298 7989.00000 3995.37637  50.0%     -   41s
     0     0 3998.30158    0 2318 7989.00000 3998.30158  50.0%     -   44s
     0     0 3998.72633    0 2357 7989.00000 3998.72633  49.9%     -   45s
     0     0 3998.86500    0 2479 7989.00000 3998.86500  49.9%     -   46s
     0     0 4034.84284    0 3137 7989.00000 4034.84284  49.5%     -   56s
H    0     0                    7974.0000000 4034.84284  49.4%     -   57s
     0     0 4047.28382    0 3156 7974.00000 4047.28382  49.2%     -   63s
     0     0 4052.63649    0 3303 7974.00000 4052.63649  49.2%     -   69s
     0     0 4054.19218    0 3217 7974.00000 4054.19218  49.2%     -   74s
     0     0 4054.74529    0 3308 7974.00000 4054.74529  49.2%     -   77s
     0     0 4054.86085    0 3325 7974.00000 4054.86085  49.1%     -   78s
H    0     0                    7973.0000000 4078.75102  48.8%     -   90s
     0     0 4078.75102    0 3721 7973.00000 4078.75102  48.8%     -   90s
H    0     0                    7948.0000000 4092.11053  48.5%     -  100s
     0     0 4092.11053    0 4054 7948.00000 4092.11053  48.5%     -  100s

Cutting planes:
  Gomory: 40
  Cover: 3152
  Implied bound: 105
  Clique: 723
  MIR: 77
  StrongCG: 2
  Flow cover: 112
  Zero half: 17
  Relax-and-lift: 2

Explored 1 nodes (112386 simplex iterations) in 100.04 seconds (91.63 work units)
Thread count was 12 (of 12 available processors)

Solution count 10: 7948 7973 7974 ... 8889

Time limit reached
Best objective 7.948000000000e+03, best bound 4.093000000000e+03, gap 48.5028%
